/*********************************************
 * OPL 12.6.0.0 Data
 * Author: Adrian Rodriguez Bazaga, Pau Rodriguez Esmerats
 * Creation Date: 09/12/2017 at 00:43:19
 *********************************************/

maxConsec=13;
maxPresence=13;
maxHours=8;
minHours=5;
hours=20;
demand= [4 6 6 6 5 6 6 6 5 4 1 0 0 0 0 0 0 0 0 0  ];
nNurses=7;
